language ESSENCE' 1.0

letting jobs = 102
letting horizon = 811
letting resourcesRenew = 2
letting resourcesNonrenew = 2
letting resourceLimits = [34, 35, 379, 379]
letting successors = [[2, 3, 5, 6, 7, 8, 9, 10, 11, 12, 13, 15, 16, 17, 18, 24, 25], [41, 28, 27, 22, 19, 4], [43, 41, 38, 33, 32, 31, 30, 28, 26, 21, 20], [40, 38, 33, 31, 26, 21, 20, 14], [48, 47, 41, 40, 38, 35, 34, 33, 32, 26, 23, 20], [55, 40, 38, 37, 36, 34, 32, 28, 26, 23, 21], [56, 55, 51, 43, 42, 41, 39, 38, 36, 35, 34, 28, 19], [56, 55, 50, 40, 38, 37, 36, 32, 28, 21, 19], [56, 51, 50, 41, 34, 28, 14], [56, 55, 51, 48, 41, 39, 38, 37, 36, 35, 33, 32, 26], [51, 48, 47, 45, 41, 39, 38, 37, 35, 29, 27, 26], [50, 45, 41, 39, 38, 36, 35, 28, 27, 20], [68, 52, 51, 48, 47, 46, 45, 42, 41, 40, 39, 33, 27], [72, 68, 65, 61, 57, 55, 54, 42, 39, 37, 36, 35, 32], [68, 56, 55, 53, 52, 50, 47, 42, 41, 28], [72, 69, 68, 65, 63, 61, 58, 57, 56, 55, 54, 51, 50, 46, 42, 37], [72, 70, 68, 56, 55, 53, 51, 49, 47, 46, 31], [68, 58, 44, 42, 41, 39, 32], [72, 70, 68, 66, 65, 61, 52, 48, 47, 45, 44, 33], [72, 69, 68, 66, 65, 63, 61, 59, 57, 56, 55, 51, 49, 37], [72, 70, 69, 65, 61, 52, 51, 48, 47, 46, 35], [100, 78, 72, 70, 66, 65, 63, 62, 61, 60, 58, 56, 55, 49, 45, 44], [101, 72, 68, 66, 63, 61, 60, 56, 54, 53, 52, 44, 42], [101, 69, 68, 67, 65, 63, 61, 59, 53, 52, 49, 48, 46, 44], [76, 72, 70, 65, 63, 61, 60, 57, 52, 49, 46, 45], [76, 69, 68, 65, 63, 58, 54, 50, 46, 42], [100, 99, 78, 70, 69, 67, 66, 63, 62, 61, 60, 59, 58, 55, 49, 44], [99, 76, 70, 69, 67, 63, 61, 59, 58, 57, 54, 48, 46], [100, 76, 70, 69, 67, 65, 63, 62, 61, 60, 59, 57, 56, 55, 53], [99, 70, 69, 65, 63, 62, 60, 50, 46, 44], [100, 78, 65, 63, 60, 52, 45, 44], [76, 70, 63, 60, 46, 45], [100, 99, 76, 75, 71, 69, 67, 63, 62, 60, 59, 57, 53], [101, 99, 97, 78, 70, 67, 66, 65, 63, 61, 44], [100, 99, 79, 78, 67, 66, 63, 59, 49, 44], [98, 79, 78, 71, 70, 69, 66, 63, 62, 47], [101, 100, 98, 95, 93, 91, 78, 77, 76, 75, 74, 71, 70, 67, 60, 52], [100, 98, 91, 78, 76, 74, 70, 69, 59, 52], [100, 99, 91, 76, 73, 71, 67, 66, 59, 53], [99, 98, 94, 91, 90, 89, 79, 76, 75, 74, 67, 66, 64, 62], [98, 94, 77, 76, 72, 70, 65, 62, 54], [99, 94, 92, 79, 70, 67, 59, 49], [100, 99, 93, 90, 78, 76, 74, 62, 61], [98, 95, 94, 91, 90, 77, 76, 75, 74, 73, 71, 64], [99, 97, 92, 91, 75, 71, 69, 67, 59], [100, 98, 94, 92, 91, 90, 89, 87, 78, 74, 66, 64], [101, 100, 99, 96, 95, 94, 91, 89, 87, 76, 74, 64], [100, 94, 93, 91, 89, 88, 81, 78, 60], [97, 96, 95, 91, 89, 77, 75, 74, 73, 64], [98, 96, 95, 94, 92, 91, 89, 88, 85, 84, 83, 81, 78, 77, 73], [98, 97, 95, 94, 91, 90, 89, 88, 87, 80, 77, 75, 74], [99, 96, 94, 92, 88, 81, 79, 62], [98, 97, 94, 92, 90, 87, 84, 83, 81, 80, 79, 78, 77], [100, 93, 91, 90, 88, 86, 75, 73, 71], [94, 90, 89, 88, 85, 83, 81, 80, 77, 74], [99, 91, 89, 88, 86, 84, 82, 75, 73], [101, 94, 92, 89, 88, 84, 83, 82, 81, 80, 78], [101, 97, 96, 94, 93, 91, 90, 89, 84, 82, 81], [96, 95, 93, 90, 89, 88, 85, 83, 81, 77], [96, 92, 90, 84, 83, 82, 79, 73], [98, 96, 89, 88, 85, 83, 81, 80, 77], [97, 86, 85, 84, 83, 82, 73], [93, 91, 90, 74, 73], [93, 88, 85, 83, 82, 81, 80], [95, 91, 84, 82, 81, 80], [95, 88, 83, 81, 77], [96, 85, 83, 82, 80], [95, 90, 85, 84, 81], [86, 85, 80, 77], [90, 85, 73], [89, 87, 84, 80], [92, 91, 81, 80], [87, 80], [86, 84], [83, 81], [92, 81], [82], [86], [85], [102], [102], [102], [102], [102], [102], [102], [102], [102], [102], [102], [102], [102], [102], [102], [102], [102], [102], [102], [102], [102], [102], []]
letting durations = [[0], [4, 5, 6], [3, 3, 6], [5, 6, 10], [1, 6, 9], [2, 3, 4], [4, 6, 8], [3, 6, 10], [2, 6, 10], [3, 5, 9], [1, 2, 4], [3, 10, 10], [4, 5, 6], [2, 3, 7], [4, 5, 9], [7, 9, 10], [5, 6, 7], [4, 6, 8], [2, 3, 8], [1, 2, 8], [5, 8, 10], [7, 8, 9], [1, 3, 9], [2, 7, 10], [1, 4, 4], [1, 2, 4], [5, 9, 10], [1, 5, 10], [2, 6, 7], [6, 9, 10], [3, 7, 8], [3, 6, 9], [3, 5, 9], [2, 3, 5], [2, 4, 5], [5, 7, 10], [3, 6, 9], [2, 7, 10], [2, 4, 10], [1, 8, 10], [4, 5, 8], [5, 6, 10], [3, 5, 6], [2, 6, 10], [4, 6, 7], [1, 4, 6], [6, 10, 10], [6, 7, 10], [4, 5, 7], [1, 6, 7], [2, 4, 9], [1, 5, 9], [2, 3, 8], [2, 3, 5], [5, 7, 8], [1, 4, 6], [4, 7, 8], [3, 4, 10], [1, 8, 10], [5, 6, 10], [2, 3, 7], [2, 6, 9], [1, 9, 10], [2, 8, 10], [2, 3, 6], [4, 7, 9], [6, 7, 9], [1, 2, 4], [4, 7, 8], [4, 7, 10], [3, 4, 9], [2, 2, 6], [2, 5, 8], [7, 9, 10], [2, 6, 10], [4, 6, 7], [4, 6, 8], [5, 7, 7], [1, 4, 6], [1, 4, 8], [7, 8, 9], [5, 8, 9], [4, 8, 10], [2, 5, 9], [2, 4, 9], [1, 2, 5], [1, 4, 9], [3, 5, 10], [1, 4, 9], [2, 5, 7], [1, 4, 9], [4, 9, 10], [1, 1, 7], [4, 5, 7], [3, 7, 9], [2, 3, 5], [4, 5, 9], [3, 5, 10], [2, 3, 6], [4, 5, 5], [3, 5, 6], [0]]
letting resourceUsage = [[[0, 0, 0, 0]], [[4, 3, 9, 0], [3, 3, 9, 0], [3, 3, 0, 8]], [[5, 3, 0, 9], [3, 3, 5, 0], [2, 1, 5, 0]], [[3, 4, 8, 0], [2, 3, 5, 0], [2, 2, 4, 0]], [[3, 5, 10, 0], [2, 4, 9, 0], [2, 3, 9, 0]], [[3, 4, 0, 6], [2, 4, 0, 3], [2, 4, 0, 2]], [[3, 4, 0, 7], [3, 4, 0, 6], [2, 4, 1, 0]], [[2, 4, 5, 0], [2, 3, 0, 1], [2, 1, 0, 1]], [[5, 5, 0, 7], [5, 5, 0, 5], [5, 5, 0, 3]], [[4, 2, 0, 7], [4, 2, 7, 0], [3, 2, 6, 0]], [[5, 2, 9, 0], [4, 2, 6, 0], [2, 2, 4, 0]], [[5, 4, 5, 0], [4, 4, 0, 5], [4, 3, 3, 0]], [[4, 5, 8, 0], [2, 5, 0, 6], [1, 5, 0, 3]], [[5, 3, 2, 0], [5, 3, 1, 0], [5, 1, 0, 6]], [[3, 5, 5, 0], [3, 4, 3, 0], [3, 3, 0, 7]], [[3, 5, 9, 0], [2, 3, 0, 5], [2, 3, 2, 0]], [[4, 2, 3, 0], [3, 1, 4, 0], [3, 1, 3, 0]], [[2, 4, 5, 0], [2, 3, 5, 0], [2, 2, 0, 4]], [[1, 4, 5, 0], [1, 3, 4, 0], [1, 3, 3, 0]], [[5, 4, 6, 0], [2, 3, 0, 2], [1, 2, 3, 0]], [[4, 4, 0, 8], [2, 4, 0, 6], [1, 2, 0, 6]], [[5, 1, 0, 7], [4, 1, 0, 4], [4, 1, 0, 3]], [[5, 3, 0, 3], [3, 3, 0, 3], [3, 3, 0, 2]], [[4, 4, 8, 0], [2, 3, 5, 0], [1, 3, 0, 2]], [[4, 5, 0, 6], [3, 4, 0, 6], [3, 3, 5, 0]], [[4, 3, 0, 5], [3, 1, 0, 5], [2, 1, 0, 3]], [[3, 3, 2, 0], [3, 3, 0, 4], [3, 3, 1, 0]], [[1, 2, 8, 0], [1, 1, 0, 6], [1, 1, 7, 0]], [[1, 4, 0, 6], [1, 3, 0, 5], [1, 3, 0, 4]], [[2, 2, 0, 5], [2, 2, 5, 0], [2, 1, 1, 0]], [[1, 5, 0, 7], [1, 4, 2, 0], [1, 4, 1, 0]], [[4, 2, 9, 0], [2, 2, 7, 0], [2, 2, 0, 1]], [[4, 4, 0, 8], [3, 3, 7, 0], [2, 2, 0, 7]], [[3, 4, 0, 5], [1, 3, 2, 0], [1, 2, 0, 2]], [[2, 5, 0, 6], [1, 3, 0, 4], [1, 2, 1, 0]], [[2, 4, 0, 4], [1, 3, 6, 0], [1, 2, 0, 3]], [[2, 5, 0, 8], [1, 5, 5, 0], [1, 5, 0, 6]], [[5, 4, 9, 0], [4, 3, 6, 0], [4, 3, 0, 5]], [[4, 3, 7, 0], [3, 3, 0, 4], [3, 2, 0, 4]], [[2, 2, 0, 8], [2, 2, 0, 4], [2, 2, 2, 0]], [[4, 4, 0, 7], [3, 3, 0, 5], [3, 2, 2, 0]], [[3, 5, 0, 8], [3, 3, 0, 3], [3, 2, 0, 2]], [[2, 4, 0, 5], [2, 3, 7, 0], [2, 3, 0, 5]], [[3, 2, 7, 0], [2, 1, 0, 6], [2, 1, 0, 5]], [[5, 1, 0, 5], [2, 1, 8, 0], [2, 1, 6, 0]], [[4, 3, 4, 0], [2, 2, 3, 0], [2, 2, 2, 0]], [[5, 5, 9, 0], [2, 3, 8, 0], [1, 3, 0, 10]], [[2, 4, 9, 0], [2, 3, 8, 0], [2, 3, 0, 5]], [[1, 5, 3, 0], [1, 4, 3, 0], [1, 4, 0, 7]], [[4, 3, 10, 0], [3, 2, 10, 0], [3, 1, 10, 0]], [[5, 2, 0, 8], [5, 2, 0, 7], [5, 2, 0, 6]], [[5, 2, 10, 0], [4, 1, 9, 0], [3, 1, 7, 0]], [[5, 1, 7, 0], [3, 1, 0, 3], [3, 1, 6, 0]], [[3, 4, 4, 0], [3, 4, 3, 0], [2, 4, 3, 0]], [[3, 3, 0, 6], [1, 3, 0, 7], [1, 3, 0, 6]], [[2, 3, 3, 0], [2, 3, 0, 6], [1, 3, 3, 0]], [[5, 3, 10, 0], [4, 3, 0, 4], [4, 3, 0, 3]], [[5, 1, 0, 7], [4, 1, 3, 0], [4, 1, 2, 0]], [[3, 2, 0, 2], [2, 2, 6, 0], [1, 1, 0, 2]], [[3, 5, 8, 0], [2, 3, 7, 0], [1, 3, 0, 1]], [[1, 3, 0, 8], [1, 3, 0, 7], [1, 3, 0, 6]], [[5, 3, 4, 0], [3, 1, 2, 0], [3, 1, 0, 1]], [[1, 1, 0, 4], [1, 1, 7, 0], [1, 1, 0, 2]], [[4, 3, 6, 0], [4, 1, 5, 0], [4, 1, 0, 2]], [[2, 2, 0, 6], [1, 2, 0, 4], [1, 2, 2, 0]], [[2, 3, 0, 4], [1, 1, 0, 2], [1, 1, 0, 1]], [[2, 3, 0, 6], [2, 3, 0, 4], [1, 1, 1, 0]], [[2, 2, 0, 5], [1, 2, 0, 4], [1, 2, 0, 3]], [[3, 1, 0, 7], [3, 1, 0, 6], [3, 1, 7, 0]], [[5, 4, 0, 4], [5, 2, 0, 3], [5, 2, 3, 0]], [[4, 4, 3, 0], [3, 3, 3, 0], [3, 2, 0, 5]], [[5, 2, 2, 0], [4, 2, 0, 6], [3, 2, 1, 0]], [[3, 4, 4, 0], [3, 4, 0, 5], [2, 2, 2, 0]], [[5, 4, 0, 5], [4, 2, 0, 4], [4, 1, 0, 3]], [[5, 4, 0, 9], [5, 2, 9, 0], [5, 2, 8, 0]], [[5, 1, 0, 8], [4, 1, 7, 0], [4, 1, 0, 7]], [[4, 5, 0, 4], [4, 4, 0, 4], [4, 3, 6, 0]], [[3, 5, 0, 8], [2, 3, 6, 0], [2, 3, 0, 5]], [[3, 3, 9, 0], [3, 3, 4, 0], [3, 3, 3, 0]], [[3, 4, 9, 0], [3, 3, 0, 4], [3, 2, 0, 3]], [[3, 4, 0, 1], [2, 4, 1, 0], [2, 3, 1, 0]], [[5, 5, 0, 9], [5, 4, 0, 5], [5, 2, 6, 0]], [[4, 2, 0, 6], [3, 1, 0, 4], [3, 1, 0, 3]], [[5, 3, 6, 0], [5, 2, 0, 8], [5, 2, 2, 0]], [[4, 4, 0, 8], [4, 2, 6, 0], [3, 1, 6, 0]], [[4, 3, 0, 4], [3, 2, 0, 3], [3, 2, 0, 2]], [[2, 1, 0, 6], [2, 1, 0, 4], [2, 1, 6, 0]], [[4, 3, 0, 6], [3, 3, 0, 3], [1, 3, 0, 1]], [[4, 2, 0, 6], [4, 2, 4, 0], [4, 2, 3, 0]], [[5, 4, 0, 7], [4, 3, 6, 0], [4, 1, 5, 0]], [[4, 4, 7, 0], [2, 3, 5, 0], [2, 3, 4, 0]], [[2, 2, 6, 0], [1, 1, 5, 0], [1, 1, 4, 0]], [[4, 4, 9, 0], [4, 4, 0, 6], [3, 4, 4, 0]], [[4, 3, 9, 0], [3, 3, 0, 6], [2, 3, 0, 6]], [[3, 1, 6, 0], [3, 1, 0, 2], [3, 1, 5, 0]], [[2, 4, 4, 0], [2, 3, 0, 6], [2, 2, 0, 4]], [[4, 2, 0, 10], [3, 2, 0, 9], [3, 1, 6, 0]], [[2, 3, 0, 4], [2, 2, 0, 4], [2, 1, 3, 0]], [[5, 4, 10, 0], [4, 4, 0, 5], [4, 4, 8, 0]], [[1, 4, 8, 0], [1, 3, 0, 5], [1, 3, 2, 0]], [[3, 5, 10, 0], [2, 3, 9, 0], [2, 2, 0, 2]], [[0, 0, 0, 0]]]
